c read Graph
c width = 12
c time = 40 ms
c width = 5
c time = 73 ms
c width = 5
c time = 4845 ms
s td 21 6 25
b 1 1 2 6
b 2 2 3 6 7
b 3 3 4 9 10
b 4 3 6 7 11
b 5 3 9 10 15
b 6 11 16 17 22
b 7 15 19 20 24
b 8 11 17 22 23
b 9 15 19 23 24
b 10 3 7 8 11 12
b 11 3 8 9 14 15
b 12 11 12 17 18 23
b 13 8 12 13 14 18
b 14 14 15 18 19 23
b 15 3 8 11 12 14 15
b 16 8 11 12 14 15 18
b 17 11 12 14 15 18 23
b 18 14 15 18 23
b 19 20 24 25
b 20 16 21 22
b 21 4 5 10
1 2
2 4
3 21
3 5
4 10
5 11
6 20
6 8
7 19
7 9
8 12
9 14
10 15
11 15
12 17
13 16
14 18
15 16
16 17
17 18
